
Gurobi 10.0.0 (win64) logging started Thu Jun 13 14:17:56 2024

Set parameter LogFile to value "C:\Users\ealvarezq\Documents\GitHub\Comillas\Models\JointResearch\05. Models\06.Benchmarking\K.Investments_per_hour\RTS24_mod2_ByStages_nc40/openStarNet_RTS24_mod2_ByStages_nc40.log"
Set parameter Method to value 2
Set parameter MIPFocus to value 1
Set parameter Presolve to value 2
Set parameter RINS to value 100
Set parameter MIPGap to value 0.01
Set parameter Threads to value 9
Set parameter TimeLimit to value 259200
Set parameter IterationLimit to value 760000000
Gurobi Optimizer version 10.0.0 build v10.0.0rc2 (win64)

CPU model: Intel(R) Core(TM) i7-8700 CPU @ 3.20GHz, instruction set [SSE2|AVX|AVX2]
Thread count: 6 physical cores, 12 logical processors, using up to 9 threads

Optimize a model with 14203 rows, 9603 columns and 38716 nonzeros
Model fingerprint: 0x18d3c838
Variable types: 9582 continuous, 21 integer (21 binary)
Coefficient statistics:
  Matrix range     [1e-03, 3e+03]
  Objective range  [1e+00, 1e+00]
  Bounds range     [4e-05, 2e+00]
  RHS range        [4e-05, 2e+00]
Presolve removed 8455 rows and 4871 columns
Presolve time: 0.06s
Presolved: 5748 rows, 4732 columns, 20735 nonzeros
Variable types: 4711 continuous, 21 integer (21 binary)
Found heuristic solution: objective 95.1763675
Root relaxation presolve removed 3 rows and 3 columns
Root relaxation presolved: 5745 rows, 4729 columns, 20729 nonzeros

Root barrier log...

Ordering time: 0.00s

Barrier statistics:
 Dense cols : 21
 AA' NZ     : 3.853e+04
 Factor NZ  : 1.106e+05 (roughly 5 MB of memory)
 Factor Ops : 2.267e+06 (less than 1 second per iteration)
 Threads    : 9

                  Objective                Residual
Iter       Primal          Dual         Primal    Dual     Compl     Time
   0   2.75848890e+06 -2.50958683e+08  2.23e+01 8.87e+02  1.57e+05     0s
   1   9.07677175e+05 -1.37039050e+08  7.30e+00 1.75e+02  4.71e+04     0s
   2   6.06402073e+04 -9.11555070e+07  4.93e-01 5.91e+01  8.90e+03     0s
   3   1.98505704e+04 -1.17008208e+07  9.45e-02 9.79e-10  1.01e+03     0s
   4   1.21974733e+04 -8.96659551e+05  5.37e-03 8.49e-11  6.93e+01     0s
   5   8.71574769e+03 -1.24458949e+05  3.75e-13 1.24e-10  9.94e+00     0s
   6   3.10174080e+03 -2.52338351e+04  3.39e-13 1.46e-11  2.12e+00     0s
   7   6.67103641e+02 -5.78370338e+03  1.96e-13 3.18e-12  4.82e-01     0s
   8   2.16799031e+02 -1.06853155e+03  1.49e-13 2.33e-12  9.60e-02     0s
   9   1.31791784e+02 -2.30349502e+02  1.44e-13 3.16e-12  2.70e-02     0s
  10   8.86371662e+01 -7.74038855e+01  1.39e-13 4.15e-12  1.24e-02     0s
  11   6.89631008e+01 -6.10870536e+00  2.57e-13 3.33e-12  5.60e-03     0s
  12   5.84686934e+01  2.39561329e+01  4.69e-13 5.82e-12  2.58e-03     0s
  13   5.07653769e+01  3.40152958e+01  9.83e-13 3.91e-12  1.25e-03     0s
  14   4.83423309e+01  4.09826891e+01  1.11e-12 4.18e-12  5.49e-04     0s
  15   4.72046125e+01  4.32749020e+01  1.16e-12 3.45e-12  2.93e-04     0s
  16   4.60072101e+01  4.45569754e+01  3.80e-12 7.31e-12  1.08e-04     0s
  17   4.55328828e+01  4.50356445e+01  8.69e-12 5.64e-12  3.71e-05     0s
  18   4.53942732e+01  4.51969347e+01  2.26e-11 1.28e-11  1.47e-05     0s
  19   4.53276042e+01  4.52438498e+01  1.30e-10 4.61e-12  6.25e-06     0s
  20   4.53085944e+01  4.52626538e+01  1.07e-10 1.15e-12  3.43e-06     0s
  21   4.52974422e+01  4.52819946e+01  3.35e-11 6.35e-12  1.15e-06     0s
  22   4.52953112e+01  4.52879654e+01  5.09e-11 3.65e-12  5.48e-07     0s
  23   4.52932372e+01  4.52910834e+01  9.97e-11 9.37e-12  1.61e-07     0s
  24   4.52922700e+01  4.52920498e+01  8.87e-11 4.42e-12  1.64e-08     0s
  25   4.52921786e+01  4.52921550e+01  2.48e-10 1.33e-11  1.76e-09     0s
  26   4.52921674e+01  4.52921657e+01  7.37e-09 1.73e-11  1.33e-10     0s
  27   4.52921667e+01  4.52921666e+01  4.82e-10 2.84e-12  1.23e-11     0s

Barrier solved model in 27 iterations and 0.22 seconds (0.21 work units)
Optimal objective 4.52921667e+01


Root relaxation: objective 4.529217e+01, 747 iterations, 0.14 seconds (0.11 work units)

    Nodes    |    Current Node    |     Objective Bounds      |     Work
 Expl Unexpl |  Obj  Depth IntInf | Incumbent    BestBd   Gap | It/Node Time

     0     0   45.29217    0   17   95.17637   45.29217  52.4%     -    0s
     0     0   46.74774    0   13   95.17637   46.74774  50.9%     -    0s
H    0     0                      91.1184005   46.74774  48.7%     -    0s
H    0     0                      82.2645659   46.75041  43.2%     -    0s
     0     0   46.89207    0   13   82.26457   46.89207  43.0%     -    0s
     0     0   46.89933    0   13   82.26457   46.89933  43.0%     -    0s
     0     0   47.13538    0   16   82.26457   47.13538  42.7%     -    0s
H    0     0                      78.7777981   47.18617  40.1%     -    0s
     0     0   47.18617    0   16   78.77780   47.18617  40.1%     -    0s
     0     0   47.19299    0   18   78.77780   47.19299  40.1%     -    0s
     0     0   47.19686    0   18   78.77780   47.19686  40.1%     -    0s
     0     0   47.37587    0   17   78.77780   47.37587  39.9%     -    1s
H    0     0                      73.2905687   47.43124  35.3%     -    1s
     0     0   47.43124    0   14   73.29057   47.43124  35.3%     -    1s
     0     0   47.43124    0   14   73.29057   47.43124  35.3%     -    1s
     0     0   48.07890    0   14   73.29057   48.07890  34.4%     -    1s
     0     0   48.44448    0   14   73.29057   48.44448  33.9%     -    1s
H    0     0                      64.9903257   48.44448  25.5%     -    5s
     0     2   48.44448    0   14   64.99033   48.44448  25.5%     -    5s
   496   171     cutoff   11        64.99033   54.01867  16.9%   196   16s
H  504   171                      64.8235517   54.21569  16.4%   195   16s
   897   237     cutoff   16        64.82355   56.98684  12.1%   169   21s
  1530   328   64.31196   15    6   64.82355   59.41880  8.34%   149   25s
  2773   188     cutoff   11        64.82355   62.17749  4.08%   122   34s

Cutting planes:
  Gomory: 2
  Implied bound: 62
  MIR: 230
  Relax-and-lift: 15

Explored 3407 nodes (375144 simplex iterations) in 35.00 seconds (49.74 work units)
Thread count was 9 (of 12 available processors)

Solution count 7: 64.8236 64.9903 73.2906 ... 95.1764

Optimal solution found (tolerance 1.00e-02)
Best objective 6.482355172490e+01, best bound 6.482355172490e+01, gap 0.0000%

Gurobi 10.0.0 (win64) logging started Thu Jun 13 14:18:33 2024

Set parameter LogFile to value "C:\Users\ealvarezq\Documents\GitHub\Comillas\Models\JointResearch\05. Models\06.Benchmarking\K.Investments_per_hour\RTS24_mod2_ByStages_nc40/openStarNet_RTS24_mod2_ByStages_nc40.log"
Set parameter Method to value 2
Set parameter MIPFocus to value 1
Set parameter Presolve to value 2
Set parameter RINS to value 100
Set parameter MIPGap to value 0.01
Set parameter Threads to value 9
Set parameter TimeLimit to value 259200
Set parameter IterationLimit to value 760000000
Gurobi Optimizer version 10.0.0 build v10.0.0rc2 (win64)

CPU model: Intel(R) Core(TM) i7-8700 CPU @ 3.20GHz, instruction set [SSE2|AVX|AVX2]
Thread count: 6 physical cores, 12 logical processors, using up to 9 threads

Optimize a model with 14203 rows, 9582 columns and 35335 nonzeros
Model fingerprint: 0xb2c3c8d8
Coefficient statistics:
  Matrix range     [1e-03, 3e+03]
  Objective range  [1e+00, 1e+00]
  Bounds range     [4e-05, 2e+00]
  RHS range        [4e-05, 2e+01]
Presolve removed 11963 rows and 5562 columns
Presolve time: 0.02s
Presolved: 2240 rows, 4085 columns, 10089 nonzeros

Ordering time: 0.00s

Barrier statistics:
 AA' NZ     : 5.876e+03
 Factor NZ  : 2.200e+04 (roughly 2 MB of memory)
 Factor Ops : 3.210e+05 (less than 1 second per iteration)
 Threads    : 1

                  Objective                Residual
Iter       Primal          Dual         Primal    Dual     Compl     Time
   0   2.44155468e+06 -9.22389535e+07  1.21e+01 5.74e+03  1.31e+05     0s
   1   1.46706197e+05 -5.31273335e+07  7.43e-01 6.55e-11  1.36e+04     0s
   2   4.90862072e+04 -1.70111278e+07  2.30e-01 1.16e-10  3.38e+03     0s
   3   1.98294508e+04 -4.29408987e+06  1.92e-02 5.82e-11  6.39e+02     0s
   4   1.46808407e+04 -4.75482441e+05  1.91e-05 5.09e-11  6.84e+01     0s
   5   7.65449172e+03 -1.16684380e+05  2.49e-08 1.82e-11  1.73e+01     0s
   6   3.18048382e+03 -4.42564163e+04  6.12e-10 5.91e-12  6.62e+00     0s
   7   9.48225992e+02 -4.96127505e+03  7.90e-12 1.30e-11  8.24e-01     0s
   8   2.73573150e+02 -1.14903752e+03  1.96e-12 1.20e-11  1.98e-01     0s
   9   1.64004341e+02 -4.20438073e+02  1.61e-12 9.54e-12  8.15e-02     0s
  10   1.26515115e+02 -1.26596849e+02  8.19e-13 2.19e-11  3.53e-02     0s
  11   9.98220499e+01 -1.01521046e+01  7.12e-13 1.65e-11  1.53e-02     0s
  12   8.30677488e+01  2.89487410e+01  1.35e-12 2.73e-11  7.55e-03     0s
  13   6.91836848e+01  5.58859305e+01  9.94e-12 9.05e-12  1.85e-03     0s
  14   6.57900800e+01  6.29025885e+01  2.63e-11 1.15e-11  4.03e-04     0s
  15   6.52307217e+01  6.44395318e+01  5.40e-11 6.11e-12  1.10e-04     0s
  16   6.49476704e+01  6.46755303e+01  6.96e-11 1.27e-11  3.80e-05     0s
  17   6.48547133e+01  6.47938328e+01  5.27e-11 3.79e-12  8.49e-06     0s
  18   6.48300643e+01  6.48209643e+01  3.13e-11 3.90e-12  1.27e-06     0s
  19   6.48242270e+01  6.48233025e+01  3.15e-11 6.66e-12  1.29e-07     0s
  20   6.48235548e+01  6.48235456e+01  2.65e-11 2.46e-11  1.28e-09     0s
  21   6.48235517e+01  6.48235517e+01  1.03e-11 2.02e-11  1.28e-12     0s
  22   6.48235517e+01  6.48235517e+01  1.13e-12 1.47e-11  1.28e-15     0s

Barrier solved model in 22 iterations and 0.05 seconds (0.05 work units)
Optimal objective 6.48235517e+01

Crossover log...

     451 DPushes remaining with DInf 0.0000000e+00                 0s

     131 PPushes remaining with PInf 0.0000000e+00                 0s
       0 PPushes remaining with PInf 0.0000000e+00                 0s

  Push phase complete: Pinf 0.0000000e+00, Dinf 5.0262064e-13      0s

Iteration    Objective       Primal Inf.    Dual Inf.      Time
     134    6.4823552e+01   0.000000e+00   0.000000e+00      0s

Use crossover to convert LP symmetric solution to basic solution...
Crossover log...

       0 DPushes remaining with DInf 0.0000000e+00                 0s

      92 PPushes remaining with PInf 0.0000000e+00                 0s
       0 PPushes remaining with PInf 0.0000000e+00                 0s

  Push phase complete: Pinf 0.0000000e+00, Dinf 5.0900272e-13      0s

Iteration    Objective       Primal Inf.    Dual Inf.      Time
     233    6.4823552e+01   0.000000e+00   0.000000e+00      0s

Solved in 233 iterations and 0.07 seconds (0.06 work units)
Optimal objective  6.482355172e+01
